n = 29;
lu = [|-816, 120
      |-611, 723
      |-553, -37
      |-753, 559
      |-611, -557
      |-367, 255
      |616, 710
      |-556, -540
      |-774, 675
      |-717, 515
      |-562, -368
      |256, 658
      |75, 236
      |-422, 3
      |-651, 373
      |-800, -600
      |-16, 736
      |-435, -142
      |-420, -165
      |-94, -39
      |-337, 381
      |-411, 641
      |-397, 11
      |356, 516
      |-719, 280
      |-736, -473
      |-566, -113
      |-539, -424
      |-71, 789|];
